 vasp.5.4.1 05Feb16 (build Jul 20 2016 12:37:35) complex

 executed on             LinuxIFC date 2017.08.08  18:14:25

 INCAR:
 POTCAR:   PAW N 31May2000
 POTCAR:   PAW Ga 03Oct2001
 POTCAR:   PAW N 31May2000
   VRHFIN =N: s2p3

   TITEL  = PAW N 31May2000
   POMASS =   14.001; ZVAL   =    5.000    mass and valenz
   ENMAX  =  400.000; ENMIN  =  300.000 eV
   QCUT   =   -5.561; QGAM   =   11.121    optimization parameters

   Description
     l     E      TYP  RCUT    TYP  RCUT
     0   .000     23  1.200
     0   .000     23  1.200
     1   .000     23  1.500
     1   .700     23  1.500
     2   .000      7  1.500

 POTCAR:   PAW Ga 03Oct2001
   VRHFIN =Ga: s2p1

   TITEL  = PAW Ga 03Oct2001
   POMASS =   69.723; ZVAL   =    3.000    mass and valenz
   ENMAX  =  134.800; ENMIN  =  101.100 eV
   QCUT   =   -3.148; QGAM   =    6.295    optimization parameters

   Description
     l     E      TYP  RCUT    TYP  RCUT
     0   .000     23  2.600
     0   .000     23  2.600
     1   .000     23  2.600
     1   .000     23  2.600
     2   .100     23  2.600
     3  -.100      7  2.600

 Optimization of the real space projectors (new method)

 maximal supplied QI-value         = 25.13
 optimisation between [QCUT,QGAM] = [ 11.31, 28.40] = [ 35.82,225.87] Ry
 Optimized for a Real-space Cutoff    0.96 Angstroem

   l    n(q)    QCUT    max X(q) W(low)/X(q) W(high)/X(q)  e(spline)
   0      8    11.310     4.504    0.39E-04    0.66E-05    0.16E-07
   0      8    11.310    37.085    0.31E-03    0.98E-04    0.14E-06
   1      8    11.310     2.501    0.22E-04    0.39E-04    0.17E-07
   1      8    11.310     4.495    0.33E-03    0.91E-03    0.20E-06
 Optimization of the real space projectors (new method)

 maximal supplied QI-value         = 14.36
 optimisation between [QCUT,QGAM] = [ 11.35, 28.58] = [ 36.05,228.74] Ry
 Optimized for a Real-space Cutoff    1.37 Angstroem

   l    n(q)    QCUT    max X(q) W(low)/X(q) W(high)/X(q)  e(spline)
   0     12    11.346    11.562    0.30E-04    0.19E-04    0.10E-05
   0     12    11.346    38.247    0.92E-04    0.11E-03    0.70E-05
   1     11    11.346     7.569    0.80E-04    0.17E-04    0.12E-05
   1     11    11.346    32.239    0.32E-03    0.49E-04    0.47E-05
   2     11    11.346     5.208    0.87E-04    0.17E-03    0.22E-05
 PAW N 31May2000                        :
 PAW Ga 03Oct2001                       :

 POSCAR:  N Ga
  positions in direct lattice
  velocities in cartesian coordinates
 exchange correlation table for  LEXCH =        2
   RHO(1)=    0.500       N(1)  =     2000
   RHO(2)=  100.500       N(2)  =     4000

 ion  position               nearest neighbor table
   1  0.000  0.000  0.001-   3 1.95   3 1.95   3 1.95   4 1.95
   2  0.333  0.667  0.501-   4 1.95   4 1.95   4 1.95   3 1.95
   3  0.333  0.667  0.124-   1 1.95   1 1.95   1 1.95   2 1.95   4 3.18   4 3.18   4 3.18   4 3.18
                             4 3.18   4 3.18
   4  0.000  0.000  0.624-   2 1.95   2 1.95   2 1.95   1 1.95   3 3.18   3 3.18   3 3.18   3 3.18
                             3 3.18   3 3.18

  LATTYP: Found a hexagonal cell.
 ALAT       =     3.1858068740
 C/A-ratio  =     1.6283386203

  Lattice vectors:

 A1 = (   3.1858068740,   0.0000000000,   0.0000000000)
 A2 = (  -1.5929034370,   2.7589896844,   0.0000000000)
 A3 = (   0.0000000000,   0.0000000000,   5.1875723698)

Analysis of symmetry for initial positions (statically):
 Subroutine PRICEL returns:
 Original cell was already a primitive cell.

 Routine SETGRP: Setting up the symmetry group for a
 hexagonal supercell.

 Subroutine GETGRP returns: Found 12 space group operations
 (whereof  6 operations were pure point group operations)
 out of a pool of 24 trial point group operations.

The static configuration has the point symmetry C_3v.
 The point group associated with its full space group is C_6v.

Analysis of symmetry for dynamics (positions and initial velocities):
 Subroutine PRICEL returns:
 Original cell was already a primitive cell.

 Routine SETGRP: Setting up the symmetry group for a
 hexagonal supercell.

 Subroutine GETGRP returns: Found 12 space group operations
 (whereof  6 operations were pure point group operations)
 out of a pool of 24 trial point group operations.

The dynamic configuration has the point symmetry C_3v.
 The point group associated with its full space group is C_6v.

 Subroutine INISYM returns: Found 12 space group operations
 (whereof  6 operations are pure point group operations),
 and found     1 'primitive' translations

 KPOINTS: KPOINTS created by Atomic Simulation Env

Automatic generation of k-mesh.
Space group operators:
 irot       det(A)        alpha          n_x          n_y          n_z        tau_x        tau_y        tau_z
    1     1.000000     0.000000     1.000000     0.000000     0.000000     0.000000     0.000000     0.000000
    2     1.000000   120.000000     0.000000     0.000000    -1.000000     0.000000     0.000000     0.000000
    3     1.000000   120.000000     0.000000     0.000000     1.000000     0.000000     0.000000     0.000000
    4    -1.000000   180.000000     1.000000     0.000000     0.000000     0.000000     0.000000     0.000000
    5    -1.000000   180.000000     0.500000    -0.866025     0.000000     0.000000     0.000000     0.000000
    6    -1.000000   180.000000    -0.500000    -0.866025     0.000000     0.000000     0.000000     0.000000
    7     1.000000    60.000000     0.000000     0.000000    -1.000000     0.333333     0.666667     0.500000
    8     1.000000   180.000000     0.000000     0.000000     1.000000     0.333333     0.666667     0.500000
    9     1.000000    60.000000     0.000000     0.000000     1.000000     0.333333     0.666667     0.500000
   10    -1.000000   180.000000     0.866025    -0.500000     0.000000     0.333333     0.666667     0.500000
   11    -1.000000   180.000000     0.000000     1.000000     0.000000     0.333333     0.666667     0.500000
   12    -1.000000   180.000000     0.866025     0.500000     0.000000     0.333333     0.666667     0.500000

 Subroutine IBZKPT returns following result:

 Found     15 irreducible k-points:

 Following reciprocal coordinates:
            Coordinates               Weight
  0.000000  0.000000  0.000000      1.000000
  0.200000  0.000000  0.000000      6.000000
  0.400000  0.000000  0.000000      6.000000
  0.200000  0.200000  0.000000      6.000000
  0.400000  0.200000  0.000000      6.000000
  0.000000  0.000000  0.200000      2.000000
  0.200000  0.000000  0.200000     12.000000
  0.400000  0.000000  0.200000     12.000000
  0.200000  0.200000  0.200000     12.000000
  0.400000  0.200000  0.200000     12.000000
  0.000000  0.000000  0.400000      2.000000
  0.200000  0.000000  0.400000     12.000000
  0.400000  0.000000  0.400000     12.000000
  0.200000  0.200000  0.400000     12.000000
  0.400000  0.200000  0.400000     12.000000

 Following cartesian coordinates:
            Coordinates               Weight
  0.000000  0.000000  0.000000      1.000000
  0.062778  0.036245  0.000000      6.000000
  0.125557  0.072490  0.000000      6.000000
  0.062778  0.108735  0.000000      6.000000
  0.125557  0.144981  0.000000      6.000000
  0.000000  0.000000  0.038554      2.000000
  0.062778  0.036245  0.038554     12.000000
  0.125557  0.072490  0.038554     12.000000
  0.062778  0.108735  0.038554     12.000000
  0.125557  0.144981  0.038554     12.000000
  0.000000  0.000000  0.077107      2.000000
  0.062778  0.036245  0.077107     12.000000
  0.125557  0.072490  0.077107     12.000000
  0.062778  0.108735  0.077107     12.000000
  0.125557  0.144981  0.077107     12.000000

 I would recommend the setting:
   dimension x,y,z NGX =    23 NGY =   23 NGZ =   38
 SYSTEM =  unknown system
 POSCAR =   N Ga

 Startparameter for this run:
   NWRITE =      2    write-flag & timer
   PREC   = high      normal or accurate (medium, high low for compatibility)
   ISTART =      0    job   : 0-new  1-cont  2-samecut
   ICHARG =      2    charge: 1-file 2-atom 10-const
   ISPIN  =      1    spin polarized calculation?
   LNONCOLLINEAR =      F non collinear calculations
   LSORBIT =      F    spin-orbit coupling
   INIWAV =      1    electr: 0-lowe 1-rand  2-diag
   LASPH  =      F    aspherical Exc in radial PAW
   METAGGA=      F    non-selfconsistent MetaGGA calc.

 Electronic Relaxation 1
   ENCUT  =  500.0 eV  36.75 Ry    6.06 a.u.   5.81  5.81  9.46*2*pi/ulx,y,z
   ENINI  =  500.0     initial cutoff
   ENAUG  =  555.0 eV  augmentation charge cutoff
   NELM   =     50;   NELMIN=  3; NELMDL= -5     # of ELM steps
   EDIFF  = 0.1E-04   stopping-criterion for ELM
   LREAL  =      T    real-space projection
   NLSPLINE    = F    spline interpolate recip. space projectors
   LCOMPAT=      F    compatible to vasp.4.4
   GGA_COMPAT  = T    GGA compatible to vasp.4.4-vasp.4.6
   LMAXPAW     = -100 max onsite density
   LMAXMIX     =    2 max onsite mixed and CHGCAR
   VOSKOWN=      0    Vosko Wilk Nusair interpolation
   ROPT   =   -0.00040  -0.00040
 Ionic relaxation
   EDIFFG = -.3E-01   stopping-criterion for IOM
   NSW    =      0    number of steps for IOM
   NBLOCK =      1;   KBLOCK =      1    inner block; outer block
   IBRION =     -1    ionic relax: 0-MD 1-quasi-New 2-CG
   NFREE  =      0    steps in history (QN), initial steepest desc. (CG)
   ISIF   =      2    stress and relaxation
   IWAVPR =     10    prediction:  0-non 1-charg 2-wave 3-comb
   ISYM   =      2    0-nonsym 1-usesym 2-fastsym
   LCORR  =      T    Harris-Foulkes like correction to forces

   POTIM  = 0.5000    time-step for ionic-motion
   TEIN   =    0.0    initial temperature
   TEBEG  =    0.0;   TEEND  =   0.0 temperature during run
   SMASS  =  -3.00    Nose mass-parameter (am)
   estimated Nose-frequenzy (Omega)   =  0.10E-29 period in steps =****** mass=  -0.232E-27a.u.
   SCALEE = 1.0000    scale energy and forces
   NPACO  =    256;   APACO  = 16.0  distance and # of slots for P.C.
   PSTRESS=    0.0 pullay stress

  Mass of Ions in am
   POMASS =  14.00 69.72
  Ionic Valenz
   ZVAL   =   5.00  3.00
  Atomic Wigner-Seitz radii
  virtual crystal weights
   VCA    =   1.00  1.00
   NELECT =      16.0000    total number of electrons
   NUPDOWN=      -1.0000    fix difference up-down

 DOS related values:
   EMIN   =  10.00;   EMAX   =-10.00  energy-range for DOS
   EFERMI =   0.00
   ISMEAR =     1;   SIGMA  =   0.20  broadening in eV -4-tet -1-fermi 0-gaus

 Electronic relaxation 2 (details)
   IALGO  =     68    algorithm
   LDIAG  =      T    sub-space diagonalisation (order eigenvalues)
   LSUBROT=      F    optimize rotation matrix (better conditioning)
   TURBO    =      0    0=normal 1=particle mesh
   IRESTART =      0    0=no restart 2=restart with 2 vectors
   NREBOOT  =      0    no. of reboots
   NMIN     =      0    reboot dimension
   EREF     =   0.00    reference energy to select bands
   IMIX   =      4    mixing-type and parameters
     AMIX     =   0.40;   BMIX     =  1.00
     AMIX_MAG =   1.60;   BMIX_MAG =  1.00
     AMIN     =   0.10
     WC   =   100.;   INIMIX=   1;  MIXPRE=   1;  MAXMIX= -45

 Intra band minimization:
   WEIMIN = 0.0000     energy-eigenvalue tresh-hold
   EBREAK =  0.21E-06  absolut break condition
   DEPER  =   0.30     relativ break condition

   TIME   =   0.40     timestep for ELM

  volume/ion in A,a.u.               =      11.40        76.93
  Fermi-wavevector in a.u.,A,eV,Ry     =   1.154703  2.182072 18.141176  1.333339
  Thomas-Fermi vector in A             =   2.291337

 Write flags
   LWAVE  =      T    write WAVECAR
   LCHARG =      T    write CHGCAR
   LVTOT  =      F    write LOCPOT, total local potential
   LVHAR  =      F    write LOCPOT, Hartree potential only
   LELF   =      F    write electronic localiz. function (ELF)
   LORBIT =      0    0 simple, 1 ext, 2 COOP (PROOUT)

 Dipole corrections
   LMONO  =      F    monopole corrections only (constant potential shift)
   LDIPOL =      F    correct potential (dipole corrections)
   IDIPOL =      0    1-x, 2-y, 3-z, 4-all directions
   EPSILON=  1.0000000 bulk dielectric constant

 Exchange correlation treatment:
   GGA     =    --    GGA type
   VOSKOWN=      0    Vosko Wilk Nusair interpolation
   LHFCALC =     F    Hartree Fock is set to
   LHFONE  =     F    Hartree Fock one center treatment
   AEXX    =    0.0000 exact exchange contribution

 Linear response parameters
   LEPSILON=     F    determine dielectric tensor
   LRPA    =     F    only Hartree local field effects (RPA)
   LNABLA  =     F    use nabla operator in PAW spheres
   LVEL    =     F    velocity operator in full k-point grid
   LINTERFAST=   F  fast interpolation
   KINTER  =     0    interpolate to denser k-point grid
   CSHIFT  =0.1000    complex shift for real part using Kramers Kronig
   OMEGAMAX=  -1.0    maximum frequency
   DEG_THRESHOLD= 0.2000000E-02 threshold for treating states as degnerate
   RTIME   =    0.100 relaxation time in fs

 Orbital magnetization related:
   ORBITALMAG=     F  switch on orbital magnetization
   LCHIMAG   =     F  perturbation theory with respect to B field
   DQ        =  0.001000  dq finite difference perturbation B field

 Static calculation
 charge density and potential will be updated during run
 non-spin polarized calculation
 RMM-DIIS sequential band-by-band and
  variant of blocked Davidson during initial phase
 perform sub-space diagonalisation
    before iterative eigenvector-optimisation
 modified Broyden-mixing scheme, WC =      100.0
 initial mixing is a Kerker type mixing with AMIX =  0.4000 and BMIX =      1.0000
 Hartree-type preconditioning will be used
 using additional bands            4
 real space projection scheme for non local part
 use partial core corrections
 calculate Harris-corrections to forces
   (improved forces if not selfconsistent)
 use of overlap-Matrix (Vanderbilt PP)
 Methfessel and Paxton  Order N= 1 SIGMA  =   0.20

  energy-cutoff  :      500.00
  volume of cell :       45.60
      direct lattice vectors                 reciprocal lattice vectors
     3.185806874  0.000000000  0.000000000     0.313892222  0.181225759  0.000000000
    -1.592903437  2.758989684  0.000000000     0.000000000  0.362451518  0.000000000
     0.000000000  0.000000000  5.187572370     0.000000000  0.000000000  0.192768395

  length of vectors
     3.185806874  3.185806874  5.187572370     0.362451518  0.362451518  0.192768395

 k-points in units of 2pi/SCALE and weight: KPOINTS created by Atomic Simulation Env
   0.00000000  0.00000000  0.00000000       0.008
   0.06277844  0.03624515  0.00000000       0.048
   0.12555689  0.07249030  0.00000000       0.048
   0.06277844  0.10873546  0.00000000       0.048
   0.12555689  0.14498061  0.00000000       0.048
   0.00000000  0.00000000  0.03855368       0.016
   0.06277844  0.03624515  0.03855368       0.096
   0.12555689  0.07249030  0.03855368       0.096
   0.06277844  0.10873546  0.03855368       0.096
   0.12555689  0.14498061  0.03855368       0.096
   0.00000000  0.00000000  0.07710736       0.016
   0.06277844  0.03624515  0.07710736       0.096
   0.12555689  0.07249030  0.07710736       0.096
   0.06277844  0.10873546  0.07710736       0.096
   0.12555689  0.14498061  0.07710736       0.096

 k-points in reciprocal lattice and weights: KPOINTS created by Atomic Simulation Env
   0.00000000  0.00000000  0.00000000       0.008
   0.20000000  0.00000000  0.00000000       0.048
   0.40000000  0.00000000  0.00000000       0.048
   0.20000000  0.20000000  0.00000000       0.048
   0.40000000  0.20000000  0.00000000       0.048
   0.00000000  0.00000000  0.20000000       0.016
   0.20000000  0.00000000  0.20000000       0.096
   0.40000000  0.00000000  0.20000000       0.096
   0.20000000  0.20000000  0.20000000       0.096
   0.40000000  0.20000000  0.20000000       0.096
   0.00000000  0.00000000  0.40000000       0.016
   0.20000000  0.00000000  0.40000000       0.096
   0.40000000  0.00000000  0.40000000       0.096
   0.20000000  0.20000000  0.40000000       0.096
   0.40000000  0.20000000  0.40000000       0.096

 position of ions in fractional coordinates (direct lattice)
   0.00000000  0.00000000  0.00075013
   0.33333333  0.66666667  0.50075013
   0.33333333  0.66666667  0.12424987
   0.00000000  0.00000000  0.62424987

 position of ions in cartesian coordinates  (Angst):
   0.00000000  0.00000000  0.00389136
   0.00000000  1.83932646  2.59767755
   0.00000000  1.83932646  0.64455518
   0.00000000  0.00000000  3.23834137

 k-point  1 :   0.0000 0.0000 0.0000  plane waves:    1141
 k-point  2 :   0.2000 0.0000 0.0000  plane waves:    1150
 k-point  3 :   0.4000 0.0000 0.0000  plane waves:    1170
 k-point  4 :   0.2000 0.2000 0.0000  plane waves:    1162
 k-point  5 :   0.4000 0.2000 0.0000  plane waves:    1158
 k-point  6 :   0.0000 0.0000 0.2000  plane waves:    1147
 k-point  7 :   0.2000 0.0000 0.2000  plane waves:    1157
 k-point  8 :   0.4000 0.0000 0.2000  plane waves:    1169
 k-point  9 :   0.2000 0.2000 0.2000  plane waves:    1154
 k-point 10 :   0.4000 0.2000 0.2000  plane waves:    1155
 k-point 11 :   0.0000 0.0000 0.4000  plane waves:    1165
 k-point 12 :   0.2000 0.0000 0.4000  plane waves:    1150
 k-point 13 :   0.4000 0.0000 0.4000  plane waves:    1162
 k-point 14 :   0.2000 0.2000 0.4000  plane waves:    1155
 k-point 15 :   0.4000 0.2000 0.4000  plane waves:    1144

 maximum and minimum number of plane-waves per node :      1170     1141

 maximum number of plane-waves:      1170
 maximum index in each direction:
   IXMAX=    5   IYMAX=    5   IZMAX=    9
   IXMIN=   -6   IYMIN=   -5   IZMIN=   -9

 NGX is ok and might be reduce to  24
 NGY is ok and might be reduce to  22
 NGZ is ok and might be reduce to  38

 serial   3D FFT for wavefunctions
 parallel 3D FFT for charge:
    minimum data exchange during FFTs selected (reduces bandwidth)

 Broyden mixing: mesh for mixing (old mesh)
   NGX = 11   NGY = 11   NGZ = 19
  (NGX  = 32   NGY  = 32   NGZ  = 54)
  gives a total of   2299 points

 initial charge density was supplied:
 charge density of overlapping atoms calculated
 number of electron      16.0000000 magnetization
 keeping initial charge density in first step

 Maximum index for non-local projection operator         5259
 Maximum index for augmentation-charges        10598 (set IRDMAX)

 First call to EWALD:  gamma=   0.496
 Maximum number of real-space cells 3x 3x 2
 Maximum number of reciprocal cells 3x 3x 4

 FEWALD executed in parallel

----------------------------------------- Iteration    1(   1)  ---------------------------------------

 eigenvalue-minimisations  :   360
 total energy-change (2. order) : 0.4623302E+02  (-0.6952257E+03)
 number of electron      16.0000000 magnetization
 augmentation part       16.0000000 magnetization

 Free energy of the ion-electron system (eV)
  alpha Z        PSCENC =        50.33647864
  Ewald energy   TEWEN  =      -574.87775200
  -Hartree energ DENC   =      -122.14838947
  -exchange      EXHF   =         0.00000000
  -V(xc)+E(xc)   XCENC  =         1.66140676
  PAW double counting   =       307.68989394     -264.31964299
  entropy T*S    EENTRO =        -0.00295722
  eigenvalues    EBANDS =         0.64256880
  atomic energy  EATOM  =       647.25141202
  Solvation  Ediel_sol  =         0.00000000
  free energy    TOTEN  =        46.23301849 eV

  energy without entropy =       46.23597571  energy(sigma->0) =       46.23400423

[...]

 eigenvalue-minimisations  :   496
 total energy-change (2. order) :-0.7438373E+02  (-0.6880804E+02)
 number of electron      16.0000000 magnetization
 augmentation part       16.0000000 magnetization

[...]

 Broyden mixing:
  rms(total) = 0.10517E+01    rms(broyden)= 0.10513E+01
  rms(prec ) = 0.22913E+01
  weight for this iteration     100.00

[...]

 eigenvalues of (default mixing * dielectric matrix)
  average eigenvalue GAMMA=   0.9149
  0.9149

[...]

 eigenvalue-minimisations  :   439
 total energy-change (2. order) :-0.1269645E-02  (-0.1123102E-02)
 number of electron      15.9999984 magnetization
 augmentation part       -0.4165375 magnetization

[...]

 Broyden mixing:
  rms(total) = 0.12347E-02    rms(broyden)= 0.12318E-02
  rms(prec ) = 0.24471E-02
  weight for this iteration     100.00

 eigenvalues of (default mixing * dielectric matrix)
  average eigenvalue GAMMA=   1.6591
  2.7220  2.4877  1.9598  0.9825  1.1087  1.1766  1.1766

[...]

----------------------------------------- Iteration    1(  13)  ---------------------------------------

 eigenvalue-minimisations  :   286
 total energy-change (2. order) : 0.1664377E-05  (-0.1876301E-05)
 number of electron      15.9999984 magnetization
 augmentation part       -0.4109037 magnetization

 Free energy of the ion-electron system (eV)
  alpha Z        PSCENC =        50.33647864
  Ewald energy   TEWEN  =      -574.87775200
  -Hartree energ DENC   =      -152.91972595
  -exchange      EXHF   =         0.00000000
  -V(xc)+E(xc)   XCENC  =         4.64471892
  PAW double counting   =       435.30482120     -393.89123373
  entropy T*S    EENTRO =         0.00089039
  eigenvalues    EBANDS =       -43.72982243
  atomic energy  EATOM  =       647.25141202
  Solvation  Ediel_sol  =         0.00000000
  free energy    TOTEN  =       -27.88021295 eV

  energy without entropy =      -27.88110334  energy(sigma->0) =      -27.88050975

 average (electrostatic) potential at core
  the test charge radii are     0.7536  1.2767
  (the norm of the test charge is              1.0000)
       1 -63.8519       2 -63.8520       3 -15.4849       4 -15.4849

 E-fermi :   3.1719     XC(G=0): -11.1642     alpha+bet :-11.3055

 k-point     1 :       0.0000    0.0000    0.0000
  band No.  band energies     occupation
      1     -12.7442      2.00000
      2     -10.2931      2.00000
      3      -4.0300      2.00000
      4       2.0134      2.00000
      5       2.0134      2.00000
      6       3.0079      1.98997
      7       3.0504      1.84649
      8       3.0504      1.84647
      9       5.0769     -0.00000
     10       7.3347     -0.00000
     11      12.1719      0.00000
     12      12.8878      0.00000

[...]

 k-point    15 :       0.4000    0.2000    0.4000
  band No.  band energies     occupation
      1      -9.9016      2.00000
      2      -9.7128      2.00000
      3      -3.4080      2.00000
      4      -3.1504      2.00000
      5      -0.8297      2.00000
      6      -0.1486      2.00000
      7       1.1556      2.00000
      8       1.6014      2.00000
      9       8.4305     -0.00000
     10       9.1615      0.00000
     11      10.9028      0.00000
     12      10.9397      0.00000

 soft charge-density along one line, spin component           1
         0         1         2         3         4         5         6         7         8         9
 total charge-density along one line

------------------------ aborting loop because EDIFF is reached ----------------------------------------

  FORCE on cell =-STRESS in cart. coord.  units (eV):
  Direction    XX          YY          ZZ          XY          YZ          ZX
  Alpha Z    50.33648    50.33648    50.33648
  Ewald    -193.87767  -193.87767  -187.12281     0.00000     0.00000    -0.00000
  Hartree    49.89545    49.89545    53.09712    -0.00000    -0.00000    -0.00000
  E(xc)     -66.08407   -66.08407   -66.01249     0.00000    -0.00000     0.00000
  Local     -80.18259   -80.18248   -90.08003     0.00009     0.00000    -0.00000
  n-local     2.04907     0.94811     1.14568     1.44529     0.17187     0.26860
  augment     8.28066     8.28054     8.24052    -0.00010     0.00000    -0.00000
  Kinetic   226.68413   233.53257   230.30798    -6.68476    -0.75947    -1.30234
  Fock        0.00000     0.00000     0.00000     0.00000     0.00000     0.00000
  Total      -0.02481    -0.02481    -0.08756     0.00000     0.00000    -0.00000
  in kB      -0.87173    -0.87173    -3.07664     0.00000     0.00000    -0.00000

 VOLUME and BASIS-vectors are now :
  energy-cutoff  :      500.00
  volume of cell :       45.60
      direct lattice vectors                 reciprocal lattice vectors
     3.185806874  0.000000000  0.000000000     0.313892222  0.181225759  0.000000000
    -1.592903437  2.758989684  0.000000000     0.000000000  0.362451518  0.000000000
     0.000000000  0.000000000  5.187572370     0.000000000  0.000000000  0.192768395

  length of vectors
     3.185806874  3.185806874  5.187572370     0.362451518  0.362451518  0.192768395

 FORCES acting on ions
    electron-ion (+dipol)            ewald-force                    non-local-force                 convergence-correction
   0.300E-06 0.177E-06 0.586E+00   0.261E-11 -.151E-11 -.829E+00   -.867E-17 0.139E-16 0.263E+00   0.412E-07 -.238E-07 -.190E-03
   0.179E-05 -.670E-06 0.586E+00   -.261E-11 0.151E-11 -.829E+00   0.127E-16 -.134E-16 0.263E+00   -.432E-07 0.250E-07 -.190E-03
   0.196E-07 0.587E-06 -.839E+00   -.249E-11 0.144E-11 0.829E+00   0.000E+00 -.694E-17 0.907E-03   -.205E-08 0.118E-08 -.398E-04
   0.252E-06 -.531E-06 -.839E+00   0.249E-11 -.144E-11 0.829E+00   -.694E-17 0.694E-17 0.907E-03   0.204E-08 -.118E-08 -.393E-04
   0.237E-05 -.437E-06 -.506E+00   0.226E-14 -.112E-14 0.000E+00   -.293E-17 0.434E-18 0.528E+00   -.203E-08 0.117E-08 -.459E-03

 POSITION                                       TOTAL-FORCE (eV/Angst)
      0.00000      0.00000      0.00389         0.000000      0.000000      0.014130
      0.00000      1.83933      2.59768        -0.000000      0.000000      0.014130
      0.00000      1.83933      0.64456         0.000000      0.000000     -0.014130
      0.00000      0.00000      3.23834         0.000000      0.000000     -0.014130
    total drift:                                0.000002     -0.000000      0.021661

  FREE ENERGIE OF THE ION-ELECTRON SYSTEM (eV)
  free  energy   TOTEN  =       -27.88021295 eV

  energy  without entropy=      -27.88110334  energy(sigma->0) =      -27.88050975

 writing wavefunctions